Maximize
 obj:
Subject To
 L1_0_1:   e_0_1 + n_0 + n_1 <= 2
 L1_0_13:   e_0_13 + n_0 + n_13 <= 2
 L1_1_2:   e_1_2 + n_1 + n_2 <= 2
 L1_13_17:   e_13_17 + n_13 + n_17 <= 2
 L1_2_3:   e_2_3 + n_2 + n_3 <= 2
 L1_3_4:   e_3_4 + n_3 + n_4 <= 2
 L1_4_5:   e_4_5 + n_4 + n_5 <= 2
 L1_4_14:   e_4_14 + n_4 + n_14 <= 2
 L1_5_6:   e_5_6 + n_5 + n_6 <= 2
 L1_14_21:   e_14_21 + n_14 + n_21 <= 2
 L1_6_7:   e_6_7 + n_6 + n_7 <= 2
 L1_7_8:   e_7_8 + n_7 + n_8 <= 2
 L1_8_9:   e_8_9 + n_8 + n_9 <= 2
 L1_8_15:   e_8_15 + n_8 + n_15 <= 2
 L1_9_10:   e_9_10 + n_9 + n_10 <= 2
 L1_15_25:   e_15_25 + n_15 + n_25 <= 2
 L1_10_11:   e_10_11 + n_10 + n_11 <= 2
 L1_11_12:   e_11_12 + n_11 + n_12 <= 2
 L1_12_16:   e_12_16 + n_12 + n_16 <= 2
 L1_16_29:   e_16_29 + n_16 + n_29 <= 2
 L1_17_18:   e_17_18 + n_17 + n_18 <= 2
 L1_21_20:   e_21_20 + n_21 + n_20 <= 2
 L1_21_22:   e_21_22 + n_21 + n_22 <= 2
 L1_25_24:   e_25_24 + n_25 + n_24 <= 2
 L1_25_26:   e_25_26 + n_25 + n_26 <= 2
 L1_29_28:   e_29_28 + n_29 + n_28 <= 2
 L1_18_19:   e_18_19 + n_18 + n_19 <= 2
 L1_19_20:   e_19_20 + n_19 + n_20 <= 2
 L1_19_30:   e_19_30 + n_19 + n_30 <= 2
 L1_30_33:   e_30_33 + n_30 + n_33 <= 2
 L1_22_23:   e_22_23 + n_22 + n_23 <= 2
 L1_23_24:   e_23_24 + n_23 + n_24 <= 2
 L1_23_31:   e_23_31 + n_23 + n_31 <= 2
 L1_31_37:   e_31_37 + n_31 + n_37 <= 2
 L1_26_27:   e_26_27 + n_26 + n_27 <= 2
 L1_27_28:   e_27_28 + n_27 + n_28 <= 2
 L1_27_32:   e_27_32 + n_27 + n_32 <= 2
 L1_32_41:   e_32_41 + n_32 + n_41 <= 2
 L1_33_34:   e_33_34 + n_33 + n_34 <= 2
 L1_37_36:   e_37_36 + n_37 + n_36 <= 2
 L1_37_38:   e_37_38 + n_37 + n_38 <= 2
 L1_41_40:   e_41_40 + n_41 + n_40 <= 2
 L1_34_35:   e_34_35 + n_34 + n_35 <= 2
 L1_35_36:   e_35_36 + n_35 + n_36 <= 2
 L1_38_39:   e_38_39 + n_38 + n_39 <= 2
 L1_39_40:   e_39_40 + n_39 + n_40 <= 2
 L2_0_1:   e_0_1 - n_0 - n_1 <= 0
 L2_0_13:   e_0_13 - n_0 - n_13 <= 0
 L2_1_2:   e_1_2 - n_1 - n_2 <= 0
 L2_13_17:   e_13_17 - n_13 - n_17 <= 0
 L2_2_3:   e_2_3 - n_2 - n_3 <= 0
 L2_3_4:   e_3_4 - n_3 - n_4 <= 0
 L2_4_5:   e_4_5 - n_4 - n_5 <= 0
 L2_4_14:   e_4_14 - n_4 - n_14 <= 0
 L2_5_6:   e_5_6 - n_5 - n_6 <= 0
 L2_14_21:   e_14_21 - n_14 - n_21 <= 0
 L2_6_7:   e_6_7 - n_6 - n_7 <= 0
 L2_7_8:   e_7_8 - n_7 - n_8 <= 0
 L2_8_9:   e_8_9 - n_8 - n_9 <= 0
 L2_8_15:   e_8_15 - n_8 - n_15 <= 0
 L2_9_10:   e_9_10 - n_9 - n_10 <= 0
 L2_15_25:   e_15_25 - n_15 - n_25 <= 0
 L2_10_11:   e_10_11 - n_10 - n_11 <= 0
 L2_11_12:   e_11_12 - n_11 - n_12 <= 0
 L2_12_16:   e_12_16 - n_12 - n_16 <= 0
 L2_16_29:   e_16_29 - n_16 - n_29 <= 0
 L2_17_18:   e_17_18 - n_17 - n_18 <= 0
 L2_21_20:   e_21_20 - n_21 - n_20 <= 0
 L2_21_22:   e_21_22 - n_21 - n_22 <= 0
 L2_25_24:   e_25_24 - n_25 - n_24 <= 0
 L2_25_26:   e_25_26 - n_25 - n_26 <= 0
 L2_29_28:   e_29_28 - n_29 - n_28 <= 0
 L2_18_19:   e_18_19 - n_18 - n_19 <= 0
 L2_19_20:   e_19_20 - n_19 - n_20 <= 0
 L2_19_30:   e_19_30 - n_19 - n_30 <= 0
 L2_30_33:   e_30_33 - n_30 - n_33 <= 0
 L2_22_23:   e_22_23 - n_22 - n_23 <= 0
 L2_23_24:   e_23_24 - n_23 - n_24 <= 0
 L2_23_31:   e_23_31 - n_23 - n_31 <= 0
 L2_31_37:   e_31_37 - n_31 - n_37 <= 0
 L2_26_27:   e_26_27 - n_26 - n_27 <= 0
 L2_27_28:   e_27_28 - n_27 - n_28 <= 0
 L2_27_32:   e_27_32 - n_27 - n_32 <= 0
 L2_32_41:   e_32_41 - n_32 - n_41 <= 0
 L2_33_34:   e_33_34 - n_33 - n_34 <= 0
 L2_37_36:   e_37_36 - n_37 - n_36 <= 0
 L2_37_38:   e_37_38 - n_37 - n_38 <= 0
 L2_41_40:   e_41_40 - n_41 - n_40 <= 0
 L2_34_35:   e_34_35 - n_34 - n_35 <= 0
 L2_35_36:   e_35_36 - n_35 - n_36 <= 0
 L2_38_39:   e_38_39 - n_38 - n_39 <= 0
 L2_39_40:   e_39_40 - n_39 - n_40 <= 0
 G1_0_1:   e_0_1 + n_0 - n_1 >= 0
 G1_0_13:   e_0_13 + n_0 - n_13 >= 0
 G1_1_2:   e_1_2 + n_1 - n_2 >= 0
 G1_13_17:   e_13_17 + n_13 - n_17 >= 0
 G1_2_3:   e_2_3 + n_2 - n_3 >= 0
 G1_3_4:   e_3_4 + n_3 - n_4 >= 0
 G1_4_5:   e_4_5 + n_4 - n_5 >= 0
 G1_4_14:   e_4_14 + n_4 - n_14 >= 0
 G1_5_6:   e_5_6 + n_5 - n_6 >= 0
 G1_14_21:   e_14_21 + n_14 - n_21 >= 0
 G1_6_7:   e_6_7 + n_6 - n_7 >= 0
 G1_7_8:   e_7_8 + n_7 - n_8 >= 0
 G1_8_9:   e_8_9 + n_8 - n_9 >= 0
 G1_8_15:   e_8_15 + n_8 - n_15 >= 0
 G1_9_10:   e_9_10 + n_9 - n_10 >= 0
 G1_15_25:   e_15_25 + n_15 - n_25 >= 0
 G1_10_11:   e_10_11 + n_10 - n_11 >= 0
 G1_11_12:   e_11_12 + n_11 - n_12 >= 0
 G1_12_16:   e_12_16 + n_12 - n_16 >= 0
 G1_16_29:   e_16_29 + n_16 - n_29 >= 0
 G1_17_18:   e_17_18 + n_17 - n_18 >= 0
 G1_21_20:   e_21_20 + n_21 - n_20 >= 0
 G1_21_22:   e_21_22 + n_21 - n_22 >= 0
 G1_25_24:   e_25_24 + n_25 - n_24 >= 0
 G1_25_26:   e_25_26 + n_25 - n_26 >= 0
 G1_29_28:   e_29_28 + n_29 - n_28 >= 0
 G1_18_19:   e_18_19 + n_18 - n_19 >= 0
 G1_19_20:   e_19_20 + n_19 - n_20 >= 0
 G1_19_30:   e_19_30 + n_19 - n_30 >= 0
 G1_30_33:   e_30_33 + n_30 - n_33 >= 0
 G1_22_23:   e_22_23 + n_22 - n_23 >= 0
 G1_23_24:   e_23_24 + n_23 - n_24 >= 0
 G1_23_31:   e_23_31 + n_23 - n_31 >= 0
 G1_31_37:   e_31_37 + n_31 - n_37 >= 0
 G1_26_27:   e_26_27 + n_26 - n_27 >= 0
 G1_27_28:   e_27_28 + n_27 - n_28 >= 0
 G1_27_32:   e_27_32 + n_27 - n_32 >= 0
 G1_32_41:   e_32_41 + n_32 - n_41 >= 0
 G1_33_34:   e_33_34 + n_33 - n_34 >= 0
 G1_37_36:   e_37_36 + n_37 - n_36 >= 0
 G1_37_38:   e_37_38 + n_37 - n_38 >= 0
 G1_41_40:   e_41_40 + n_41 - n_40 >= 0
 G1_34_35:   e_34_35 + n_34 - n_35 >= 0
 G1_35_36:   e_35_36 + n_35 - n_36 >= 0
 G1_38_39:   e_38_39 + n_38 - n_39 >= 0
 G1_39_40:   e_39_40 + n_39 - n_40 >= 0
 G2_0_1:   e_0_1 - n_0 + n_1 >= 0
 G2_0_13:   e_0_13 - n_0 + n_13 >= 0
 G2_1_2:   e_1_2 - n_1 + n_2 >= 0
 G2_13_17:   e_13_17 - n_13 + n_17 >= 0
 G2_2_3:   e_2_3 - n_2 + n_3 >= 0
 G2_3_4:   e_3_4 - n_3 + n_4 >= 0
 G2_4_5:   e_4_5 - n_4 + n_5 >= 0
 G2_4_14:   e_4_14 - n_4 + n_14 >= 0
 G2_5_6:   e_5_6 - n_5 + n_6 >= 0
 G2_14_21:   e_14_21 - n_14 + n_21 >= 0
 G2_6_7:   e_6_7 - n_6 + n_7 >= 0
 G2_7_8:   e_7_8 - n_7 + n_8 >= 0
 G2_8_9:   e_8_9 - n_8 + n_9 >= 0
 G2_8_15:   e_8_15 - n_8 + n_15 >= 0
 G2_9_10:   e_9_10 - n_9 + n_10 >= 0
 G2_15_25:   e_15_25 - n_15 + n_25 >= 0
 G2_10_11:   e_10_11 - n_10 + n_11 >= 0
 G2_11_12:   e_11_12 - n_11 + n_12 >= 0
 G2_12_16:   e_12_16 - n_12 + n_16 >= 0
 G2_16_29:   e_16_29 - n_16 + n_29 >= 0
 G2_17_18:   e_17_18 - n_17 + n_18 >= 0
 G2_21_20:   e_21_20 - n_21 + n_20 >= 0
 G2_21_22:   e_21_22 - n_21 + n_22 >= 0
 G2_25_24:   e_25_24 - n_25 + n_24 >= 0
 G2_25_26:   e_25_26 - n_25 + n_26 >= 0
 G2_29_28:   e_29_28 - n_29 + n_28 >= 0
 G2_18_19:   e_18_19 - n_18 + n_19 >= 0
 G2_19_20:   e_19_20 - n_19 + n_20 >= 0
 G2_19_30:   e_19_30 - n_19 + n_30 >= 0
 G2_30_33:   e_30_33 - n_30 + n_33 >= 0
 G2_22_23:   e_22_23 - n_22 + n_23 >= 0
 G2_23_24:   e_23_24 - n_23 + n_24 >= 0
 G2_23_31:   e_23_31 - n_23 + n_31 >= 0
 G2_31_37:   e_31_37 - n_31 + n_37 >= 0
 G2_26_27:   e_26_27 - n_26 + n_27 >= 0
 G2_27_28:   e_27_28 - n_27 + n_28 >= 0
 G2_27_32:   e_27_32 - n_27 + n_32 >= 0
 G2_32_41:   e_32_41 - n_32 + n_41 >= 0
 G2_33_34:   e_33_34 - n_33 + n_34 >= 0
 G2_37_36:   e_37_36 - n_37 + n_36 >= 0
 G2_37_38:   e_37_38 - n_37 + n_38 >= 0
 G2_41_40:   e_41_40 - n_41 + n_40 >= 0
 G2_34_35:   e_34_35 - n_34 + n_35 >= 0
 G2_35_36:   e_35_36 - n_35 + n_36 >= 0
 G2_38_39:   e_38_39 - n_38 + n_39 >= 0
 G2_39_40:   e_39_40 - n_39 + n_40 >= 0
 OBJ1:     +52 e_0_1 -127 e_0_13 +24 e_1_2 -79 e_13_17 -80 e_2_3 +2 e_3_4 +39 e_4_5 +128 e_4_14 +66 e_5_6 -23 e_14_21 -46 e_6_7 +147 e_7_8 -42 e_8_9 +147 e_8_15 +22 e_9_10 -85 e_15_25 +51 e_10_11 +97 e_11_12 -36 e_12_16 -175 e_16_29 +81 e_17_18 -48 e_21_20 +132 e_21_22 -37 e_25_24 -2 e_25_26 -61 e_29_28 +124 e_18_19 +56 e_19_20 -54 e_19_30 -7 e_30_33 +145 e_22_23 +5 e_23_24 +163 e_23_31 +115 e_31_37 -83 e_26_27 -156 e_27_28 -40 e_27_32 -1 e_32_41 +69 e_33_34 +111 e_37_36 +31 e_37_38 -7 e_41_40 -29 e_34_35 +64 e_35_36 +177 e_38_39 +93 e_39_40 > 1
 OBJ2:     -83 e_0_1 +6 e_0_13 +120 e_1_2 +19 e_13_17 +68 e_2_3 -167 e_3_4 +95 e_4_5 -5 e_4_14 +193 e_5_6 -70 e_14_21 +10 e_6_7 +61 e_7_8 -99 e_8_9 +176 e_8_15 +164 e_9_10 -72 e_15_25 -235 e_10_11 +102 e_11_12 -15 e_12_16 -26 e_16_29 -65 e_17_18 -56 e_21_20 -119 e_21_22 -80 e_25_24 +67 e_25_26 +85 e_29_28 -86 e_18_19 -9 e_19_20 -84 e_19_30 +3 e_30_33 -27 e_22_23 -267 e_23_24 +147 e_23_31 -147 e_31_37 +73 e_26_27 +45 e_27_28 +34 e_27_32 -62 e_32_41 -86 e_33_34 +6 e_37_36 +165 e_37_38 -110 e_41_40 +103 e_34_35 +88 e_35_36 -24 e_38_39 +113 e_39_40 > 2
 OBJ3:     +123 e_0_1 +218 e_0_13 +136 e_1_2 +147 e_13_17 +94 e_2_3 +11 e_3_4 +154 e_4_5 -24 e_4_14 +32 e_5_6 -165 e_14_21 -27 e_6_7 +149 e_7_8 +188 e_8_9 -16 e_8_15 -24 e_9_10 -11 e_15_25 -292 e_10_11 -71 e_11_12 -3 e_12_16 +35 e_16_29 -100 e_17_18 -162 e_21_20 -20 e_21_22 +154 e_25_24 -29 e_25_26 -15 e_29_28 +122 e_18_19 +4 e_19_20 -97 e_19_30 +133 e_30_33 -5 e_22_23 +47 e_23_24 -103 e_23_31 +26 e_31_37 +21 e_26_27 +11 e_27_28 -106 e_27_32 -81 e_32_41 -60 e_33_34 +160 e_37_36 +115 e_37_38 +37 e_41_40 -3 e_34_35 -249 e_35_36 -55 e_38_39 -125 e_39_40 > 3
Bounds
 0 <= e_0_1 <= 1
 0 <= e_0_13 <= 1
 0 <= e_1_2 <= 1
 0 <= e_13_17 <= 1
 0 <= e_2_3 <= 1
 0 <= e_3_4 <= 1
 0 <= e_4_5 <= 1
 0 <= e_4_14 <= 1
 0 <= e_5_6 <= 1
 0 <= e_14_21 <= 1
 0 <= e_6_7 <= 1
 0 <= e_7_8 <= 1
 0 <= e_8_9 <= 1
 0 <= e_8_15 <= 1
 0 <= e_9_10 <= 1
 0 <= e_15_25 <= 1
 0 <= e_10_11 <= 1
 0 <= e_11_12 <= 1
 0 <= e_12_16 <= 1
 0 <= e_16_29 <= 1
 0 <= e_17_18 <= 1
 0 <= e_21_20 <= 1
 0 <= e_21_22 <= 1
 0 <= e_25_24 <= 1
 0 <= e_25_26 <= 1
 0 <= e_29_28 <= 1
 0 <= e_18_19 <= 1
 0 <= e_19_20 <= 1
 0 <= e_19_30 <= 1
 0 <= e_30_33 <= 1
 0 <= e_22_23 <= 1
 0 <= e_23_24 <= 1
 0 <= e_23_31 <= 1
 0 <= e_31_37 <= 1
 0 <= e_26_27 <= 1
 0 <= e_27_28 <= 1
 0 <= e_27_32 <= 1
 0 <= e_32_41 <= 1
 0 <= e_33_34 <= 1
 0 <= e_37_36 <= 1
 0 <= e_37_38 <= 1
 0 <= e_41_40 <= 1
 0 <= e_34_35 <= 1
 0 <= e_35_36 <= 1
 0 <= e_38_39 <= 1
 0 <= e_39_40 <= 1
 0 <= n_0 <= 1
 0 <= n_1 <= 1
 0 <= n_13 <= 1
 0 <= n_2 <= 1
 0 <= n_3 <= 1
 0 <= n_4 <= 1
 0 <= n_5 <= 1
 0 <= n_14 <= 1
 0 <= n_6 <= 1
 0 <= n_7 <= 1
 0 <= n_8 <= 1
 0 <= n_9 <= 1
 0 <= n_15 <= 1
 0 <= n_10 <= 1
 0 <= n_11 <= 1
 0 <= n_12 <= 1
 0 <= n_16 <= 1
 0 <= n_17 <= 1
 0 <= n_21 <= 1
 0 <= n_25 <= 1
 0 <= n_29 <= 1
 0 <= n_18 <= 1
 0 <= n_19 <= 1
 0 <= n_20 <= 1
 0 <= n_30 <= 1
 0 <= n_22 <= 1
 0 <= n_23 <= 1
 0 <= n_24 <= 1
 0 <= n_31 <= 1
 0 <= n_26 <= 1
 0 <= n_27 <= 1
 0 <= n_28 <= 1
 0 <= n_32 <= 1
 0 <= n_33 <= 1
 0 <= n_37 <= 1
 0 <= n_41 <= 1
 0 <= n_34 <= 1
 0 <= n_35 <= 1
 0 <= n_36 <= 1
 0 <= n_38 <= 1
 0 <= n_39 <= 1
 0 <= n_40 <= 1
Binaries
 e_0_1  e_0_13  e_1_2  e_13_17  e_2_3  e_3_4  e_4_5  e_4_14  e_5_6  e_14_21  e_6_7  e_7_8  e_8_9  e_8_15  e_9_10  e_15_25  e_10_11  e_11_12  e_12_16  e_16_29  e_17_18  e_21_20  e_21_22  e_25_24  e_25_26  e_29_28  e_18_19  e_19_20  e_19_30  e_30_33  e_22_23  e_23_24  e_23_31  e_31_37  e_26_27  e_27_28  e_27_32  e_32_41  e_33_34  e_37_36  e_37_38  e_41_40  e_34_35  e_35_36  e_38_39  e_39_40  n_0  n_1  n_13  n_2  n_3  n_4  n_5  n_14  n_6  n_7  n_8  n_9  n_15  n_10  n_11  n_12  n_16  n_17  n_21  n_25  n_29  n_18  n_19  n_20  n_30  n_22  n_23  n_24  n_31  n_26  n_27  n_28  n_32  n_33  n_37  n_41  n_34  n_35  n_36  n_38  n_39  n_40 
End